(set-logic ALL)
(declare-fun i1 () Int)
(declare-fun it520 () Int)
(declare-fun it521 () Int)
(declare-fun i2 () Int)
(declare-fun it522 () Int)
(declare-fun i3 () Int)
(declare-fun it523 () Int)
(declare-fun i4 () Int)
(declare-fun it524 () Int)
(declare-fun i5 () Int)
(declare-fun it525 () Int)
(declare-fun i6 () Int)
(declare-fun it526 () Int)
(declare-fun i7 () Int)
(declare-fun it569 () Int)
(declare-fun it570 () Int)
(declare-fun it571 () Int)
(declare-fun it572 () Int)
(declare-fun it573 () Int)
(declare-fun it574 () Int)
(declare-fun it575 () Int)
(declare-fun it576 () Int)
(declare-fun it577 () Int)
(declare-fun it578 () Int)
(declare-fun it579 () Int)
(declare-fun it580 () Int)
(declare-fun it581 () Int)
(declare-fun it582 () Int)
(declare-fun it584 () Int)
(declare-fun it585 () Int)
(declare-fun it586 () Int)
(declare-fun it587 () Int)
(declare-fun it588 () Int)
(declare-fun it589 () Int)
(declare-fun it590 () Int)
(declare-fun it117 () Int)
(assert (= (+ i1 (- 1)) 0))
(assert (= (+ it520 (- 2)) 0))
(assert (= (+ (* i2 (- 1)) it521 (- 1)) 0))
(assert (= (+ (* i3 (- 1)) it522) 0))
(assert (= (+ (* i4 (- 1)) it523) 0))
(assert (= (+ (* i5 (- 1)) it524) 0))
(assert (= (+ (* i6 (- 1)) it525) 0))
(assert (= (+ (* i7 (- 1)) it526) 0))
(assert (and (= (+ it520 (- 2)) 0) (> it525 0) (> it522 0)))
(assert (= (+ it569 (- 3)) 0))
(assert (= (+ (* it521 (- 1)) it570 (- 1)) 0))
(assert (= (+ it571 (* it522 (- 1))) 0))
(assert (= (+ it572 (* it522 (- 1))) 0))
(assert (= (+ it573 (* it526 (- 1))) 0))
(assert (= (+ (* it525 (- 1)) it574) 0))
(assert (= (+ it575 (* it526 (- 1))) 0))
(assert (let ((a!1 (< (+ (exp it572 2) (+ 0 (* it573 (- 1))) (exp it574 5)) (+ 0 0))))
  (and (> it572 0) a!1 (= (+ it569 (- 3)) 0))))
(assert (= (+ it576 (- 3)) 0))
(assert (= (+ (* it570 (- 1)) it577 (- 2)) 0))
(assert (= (+ (* it571 (- 1)) it578) 0))
(assert (= (+ (* it572 2) it579) 0))
(assert (= (+ (* (exp it574 3) (+ 0 2)) (+ 0 (* it573 (- 3))) (+ 0 it580))
   (+ 0 0)))
(assert (= (+ it581 (* it574 (- 1))) 0))
(assert (= (+ (* it575 (- 1)) it582) 0))
(assert (let ((a!1 (< (+ (exp it581 5) (exp it579 2) (+ 0 (* it580 (- 1)))) (+ 0 0)))
      (a!2 (< (+ (exp it581 5)
                 (* (exp it581 3) (+ 0 2))
                 (* (exp it579 2) (+ 0 4))
                 (+ 0 (* it580 (- 3))))
              (+ 0 0))))
  (and (< it579 0) (= (+ it576 (- 3)) 0) (> (* it579 (- 2)) 0) a!1 a!2)))
(assert (= (+ it584 (- 3)) 0))
(assert (= (+ it585 (* it577 (- 1)) (- 4)) 0))
(assert (= (+ (* it578 (- 1)) it586) 0))
(assert (= (+ it587 (* it579 (- 4))) 0))
(assert (= (+ (+ 0 it588) (* (exp it581 3) (+ 0 8)) (+ 0 (* it580 (- 9))))
   (+ 0 0)))
(assert (= (+ (* it581 (- 1)) it589) 0))
(assert (= (+ it590 (* it582 (- 1))) 0))
(assert (let ((a!1 (* (exp (exp 4 (+ it117 (- 1))) (+ 0 2)) (exp it587 2)))
      (a!2 (* (* (+ 0 it588) (exp 9 (+ it117 (- 1)))) (+ 0 3)))
      (a!3 (* (* (exp 9 (+ it117 (- 1))) (exp it589 3)) (+ 0 (- 3))))
      (a!5 (> (+ (* (exp it589 5) (+ 0 (- 1)))
                 (+ 0 it588)
                 (* (exp it587 2) (+ 0 (- 1))))
              (+ 0 0)))
      (a!6 (* (* (exp 9 (+ it117 (- 1))) (exp it589 3)) (+ 0 (- 1))))
      (a!8 (> (+ (* (exp it589 5) (+ 0 (- 1)))
                 (+ 0 (* it588 3))
                 (* (exp it589 3) (+ 0 (- 2)))
                 (* (exp it587 2) (+ 0 (- 4))))
              (+ 0 0))))
(let ((a!4 (> (+ (* a!1 (+ 0 (- 4)))
                 a!2
                 (* (exp it589 5) (+ 0 (- 1)))
                 (exp it589 3)
                 a!3)
              (+ 0 0)))
      (a!7 (+ (* a!1 (+ 0 (- 1)))
              (* (+ 0 it588) (exp 9 (+ it117 (- 1))))
              (* (exp it589 5) (+ 0 (- 1)))
              (exp it589 3)
              a!6)))
  (and a!4
       a!5
       (> a!7 (+ 0 0))
       (>= (+ it117 (- 1)) 0)
       (> (* it587 2) 0)
       (>= (+ it584 (- 3)) 0)
       (> it587 0)
       a!8
       (>= (+ (* it584 (- 1)) 3) 0)))))
(check-sat)
